20
1 6
1 7
1 12
2 5
2 7
2 12
2 18
3 8
3 13
3 17
3 19
4 6
4 7
4 9
4 12
4 15
5 7
5 13
5 14
5 19
6 8
6 10
6 14
6 18
7 8
8 14
8 19
9 15
10 16
10 19
11 14
12 16
13 1
14 17
15 20
16 18
17 18
18 19
19 4
20 9